p tw 735 1479
1 650
1 651
2 320
2 321
2 455
2 456
2 537
2 538
2 641
2 642
3 669
3 670
4 727
4 728
5 271
5 272
5 689
5 690
6 718
6 719
7 77
7 348
7 349
7 465
7 466
7 481
7 544
7 545
8 248
8 249
8 477
8 478
8 495
8 496
8 556
8 557
9 582
9 583
10 335
10 336
10 425
10 426
10 496
10 497
10 568
10 569
11 609
11 610
11 658
11 659
12 625
12 626
13 358
13 359
14 249
14 250
14 426
14 427
14 497
14 498
14 569
14 570
15 250
15 251
15 713
15 714
16 382
16 383
17 300
17 301
17 434
17 435
17 508
17 509
17 621
17 622
18 263
18 264
18 474
18 475
18 553
18 554
19 682
19 683
20 722
20 723
21 342
21 343
22 733
22 734
23 350
23 351
24 270
24 271
24 593
24 594
25 246
25 247
26 400
26 401
27 268
27 269
27 592
27 593
28 659
28 660
29 310
29 311
29 479
29 480
29 525
29 526
30 269
30 270
31 294
31 295
32 403
32 404
32 673
32 674
32 704
32 705
33 316
33 317
33 730
33 731
34 375
34 376
35 710
35 711
36 411
36 412
36 635
36 636
37 685
37 686
38 252
38 253
39 313
39 314
39 464
39 465
39 529
39 530
39 543
39 544
40 410
40 411
40 719
40 720
41 367
41 368
42 253
42 254
43 247
43 248
43 424
43 425
43 494
43 495
43 567
43 568
44 383
44 384
45 321
45 322
46 346
46 347
47 332
47 333
47 654
47 655
47 706
47 707
48 349
48 350
48 463
48 464
48 542
48 543
49 243
49 244
49 560
49 561
50 355
50 356
50 439
50 440
50 513
50 514
50 584
50 585
51 356
51 357
51 675
51 676
51 705
51 706
52 317
52 318
52 692
52 693
52 732
52 733
53 333
53 334
54 572
54 573
55 415
55 416
56 299
56 300
57 67
57 344
57 345
57 478
57 557
58 374
58 375
59 359
59 360
59 517
59 518
60 691
60 692
61 369
61 370
62 626
62 627
63 734
63 735
64 391
64 392
64 616
64 617
65 283
65 284
66 203
66 362
66 363
66 459
66 522
66 523
67 361
67 362
67 478
67 557
67 681
67 682
68 254
68 255
69 370
69 371
69 725
69 726
70 336
70 337
70 657
70 658
71 384
71 385
71 473
71 474
71 493
71 494
71 552
71 553
72 414
72 415
72 690
72 691
72 729
72 730
73 408
73 409
73 711
73 712
74 715
74 716
75 306
75 307
75 441
75 442
75 516
75 517
75 629
75 630
76 695
76 696
77 158
77 233
77 388
77 389
77 481
77 558
77 646
77 647
78 341
78 342
78 472
78 473
78 550
78 551
78 574
78 575
79 291
79 292
79 428
79 429
79 500
79 501
79 610
79 611
80 386
80 387
81 267
81 268
81 449
81 450
81 466
81 467
81 530
81 531
81 545
81 546
81 591
81 592
82 720
82 721
83 327
83 328
84 381
84 382
84 602
84 603
84 649
84 650
85 378
85 379
85 596
85 597
85 693
85 694
86 678
86 679
87 110
87 200
87 322
87 323
87 456
87 539
87 642
87 643
87 696
88 372
88 373
88 594
88 595
88 688
88 689
89 368
89 369
89 448
89 449
89 531
89 532
89 590
89 591
90 404
90 405
91 677
91 678
92 680
92 681
93 387
93 388
93 612
93 613
94 278
94 279
95 412
95 413
95 532
95 533
96 329
96 330
96 420
96 421
96 467
96 468
96 486
96 487
96 546
96 547
96 564
96 565
97 257
97 258
97 476
97 477
97 505
97 506
97 555
97 556
98 298
98 299
98 663
98 664
98 728
98 729
99 672
99 673
100 716
100 717
101 241
101 735
102 340
102 341
103 330
103 331
103 422
103 423
103 488
103 489
103 566
103 567
104 586
104 587
105 401
105 402
106 304
106 305
107 709
107 710
108 284
108 285
108 469
108 470
108 548
108 549
109 637
109 638
110 175
110 324
110 325
110 456
110 539
110 643
111 293
111 294
112 275
112 276
113 323
113 324
114 402
114 403
115 365
115 366
115 524
115 525
116 357
116 358
117 662
117 663
118 697
118 698
119 652
119 653
120 255
120 256
120 431
120 432
120 502
120 503
120 573
120 574
121 345
121 346
121 667
121 668
122 653
122 654
122 707
122 708
123 380
123 381
123 601
123 602
124 286
124 287
124 606
124 607
125 394
125 395
125 503
125 504
125 617
125 618
126 258
126 259
126 578
126 579
127 287
127 288
127 491
127 492
128 242
128 243
128 417
128 418
128 482
128 483
128 559
128 560
129 405
129 406
130 364
130 365
131 290
131 291
131 608
131 609
132 661
132 662
133 274
133 275
133 452
133 453
133 535
133 536
133 597
133 598
134 648
134 649
135 679
135 680
136 285
136 286
136 423
136 424
136 490
136 491
136 605
136 606
137 577
137 578
138 668
138 669
139 360
139 361
139 443
139 444
139 519
139 520
139 587
139 588
140 615
140 616
140 664
140 665
141 331
141 332
142 245
142 246
142 419
142 420
142 485
142 486
142 562
142 563
143 563
143 564
144 334
144 335
145 259
145 260
145 438
145 439
145 512
145 513
145 580
145 581
146 627
146 628
147 698
147 699
148 307
148 308
148 471
148 472
148 515
148 516
148 551
148 552
149 295
149 296
150 244
150 245
150 418
150 419
150 484
150 485
150 561
150 562
151 262
151 263
151 440
151 441
151 514
151 515
151 585
151 586
152 319
152 320
152 453
152 454
152 536
152 537
152 639
152 640
153 406
153 407
154 288
154 289
154 607
154 608
155 656
155 657
156 325
156 326
157 315
157 316
157 450
157 451
157 533
157 534
157 636
157 637
158 646
159 351
159 352
159 579
159 580
160 347
160 348
160 436
160 437
160 462
160 463
160 510
160 511
160 541
160 542
160 576
160 577
161 264
161 265
161 445
161 446
161 520
161 521
161 588
161 589
162 266
162 267
162 526
162 527
163 599
163 600
164 395
164 396
164 432
164 433
164 506
164 507
164 619
164 620
165 708
165 709
166 343
166 344
166 666
166 667
167 376
167 377
168 297
168 298
169 281
169 282
169 701
169 702
170 289
170 290
171 302
171 303
172 373
172 374
172 451
172 452
172 458
172 459
172 534
172 535
172 595
172 596
173 623
173 624
174 305
174 306
174 628
174 629
174 674
174 675
175 181
175 416
175 643
176 399
176 400
177 337
177 338
177 427
177 428
177 498
177 499
177 570
177 571
178 272
178 273
179 714
179 715
180 279
180 280
180 600
180 601
181 416
181 454
181 455
181 538
181 539
181 640
181 641
182 251
182 252
182 429
182 430
182 499
182 500
182 571
182 572
183 312
183 313
184 724
184 725
185 326
185 327
185 483
185 484
186 352
186 353
186 671
186 672
187 260
187 261
188 655
188 656
189 339
189 340
189 660
189 661
189 721
189 722
190 684
190 685
191 686
191 687
191 717
191 718
192 292
192 293
192 611
192 612
193 644
193 645
194 353
194 354
195 396
195 397
195 433
195 434
195 507
195 508
195 620
195 621
196 277
196 278
197 389
197 390
197 430
197 431
197 501
197 502
197 613
197 614
198 379
198 380
198 699
198 700
199 565
199 566
200 276
200 277
200 598
200 599
200 696
201 398
201 399
201 437
201 438
201 511
201 512
201 624
201 625
202 581
202 582
202 670
202 671
203 385
203 386
203 459
203 492
203 493
204 702
204 703
205 309
205 310
205 460
205 461
205 523
205 524
206 392
206 393
206 731
206 732
207 303
207 304
208 280
208 281
208 421
208 422
208 487
208 488
208 604
208 605
209 377
209 378
209 470
209 471
209 549
209 550
210 413
210 414
210 723
210 724
211 632
211 633
212 301
212 302
213 603
213 604
214 390
214 391
215 363
215 364
216 265
216 266
216 683
216 684
216 712
216 713
217 338
217 339
218 393
218 394
218 504
218 505
218 665
218 666
219 397
219 398
219 435
219 436
219 509
219 510
219 622
219 623
220 314
220 315
220 687
220 688
220 726
220 727
221 366
221 367
221 446
221 447
221 527
221 528
221 589
221 590
222 318
222 319
222 638
222 639
223 328
223 329
224 700
224 701
225 703
225 704
226 407
226 408
226 444
226 445
226 521
226 522
226 631
226 632
227 618
227 619
228 354
228 355
229 308
229 309
229 442
229 443
229 475
229 476
229 518
229 519
229 554
229 555
229 630
229 631
230 311
230 312
231 651
231 652
232 296
232 297
232 614
232 615
233 282
233 283
233 468
233 469
233 480
233 481
233 489
233 490
233 547
233 548
233 558
233 645
233 646
233 647
234 261
234 262
234 583
234 584
234 676
234 677
235 371
235 372
236 461
236 462
236 540
236 541
237 256
237 257
237 575
237 576
238 409
238 410
238 447
238 448
238 457
238 458
238 528
238 529
238 633
238 634
239 273
239 274
239 694
239 695
240 634
240 635
241 735
242 243
243 244
244 245
245 246
246 247
247 248
248 249
249 250
250 251
251 252
252 253
253 254
254 255
255 256
256 257
257 258
258 259
259 260
260 261
261 262
262 263
263 264
264 265
265 266
266 267
267 268
268 269
269 270
270 271
271 272
272 273
273 274
274 275
275 276
276 277
277 278
278 279
279 280
280 281
281 282
282 283
283 284
284 285
285 286
286 287
287 288
288 289
289 290
290 291
291 292
292 293
293 294
294 295
295 296
296 297
297 298
298 299
299 300
300 301
301 302
302 303
303 304
304 305
305 306
306 307
307 308
308 309
309 310
310 311
311 312
312 313
313 314
314 315
315 316
316 317
317 318
318 319
319 320
320 321
321 322
322 323
323 324
324 325
325 326
326 327
327 328
328 329
329 330
330 331
331 332
332 333
333 334
334 335
335 336
336 337
337 338
338 339
339 340
340 341
341 342
342 343
343 344
344 345
345 346
346 347
347 348
348 349
349 350
350 351
351 352
352 353
353 354
354 355
355 356
356 357
357 358
358 359
359 360
360 361
361 362
362 363
363 364
364 365
365 366
366 367
367 368
368 369
369 370
370 371
371 372
372 373
373 374
374 375
375 376
376 377
377 378
378 379
379 380
380 381
381 382
382 383
383 384
384 385
385 386
386 387
387 388
388 389
389 390
390 391
391 392
392 393
393 394
394 395
395 396
396 397
397 398
398 399
399 400
400 401
401 402
402 403
403 404
404 405
405 406
406 407
407 408
408 409
409 410
410 411
411 412
412 413
413 414
414 415
415 416
417 418
418 419
419 420
420 421
421 422
422 423
423 424
424 425
425 426
426 427
427 428
428 429
429 430
430 431
431 432
432 433
433 434
434 435
435 436
436 437
437 438
438 439
439 440
440 441
441 442
442 443
443 444
444 445
445 446
446 447
447 448
448 449
449 450
450 451
451 452
452 453
453 454
454 455
455 456
457 458
458 459
460 461
461 462
462 463
463 464
464 465
465 466
466 467
467 468
468 469
469 470
470 471
471 472
472 473
473 474
474 475
475 476
476 477
477 478
479 480
480 481
482 483
483 484
484 485
485 486
486 487
487 488
488 489
489 490
490 491
491 492
492 493
493 494
494 495
495 496
496 497
497 498
498 499
499 500
500 501
501 502
502 503
503 504
504 505
505 506
506 507
507 508
508 509
509 510
510 511
511 512
512 513
513 514
514 515
515 516
516 517
517 518
518 519
519 520
520 521
521 522
522 523
523 524
524 525
525 526
526 527
527 528
528 529
529 530
530 531
531 532
532 533
533 534
534 535
535 536
536 537
537 538
538 539
540 541
541 542
542 543
543 544
544 545
545 546
546 547
547 548
548 549
549 550
550 551
551 552
552 553
553 554
554 555
555 556
556 557
559 560
560 561
561 562
562 563
563 564
564 565
565 566
566 567
567 568
568 569
569 570
570 571
571 572
572 573
573 574
574 575
575 576
576 577
577 578
578 579
579 580
580 581
581 582
582 583
583 584
584 585
585 586
586 587
587 588
588 589
589 590
590 591
591 592
592 593
593 594
594 595
595 596
596 597
597 598
598 599
599 600
600 601
601 602
602 603
603 604
604 605
605 606
606 607
607 608
608 609
609 610
610 611
611 612
612 613
613 614
614 615
615 616
616 617
617 618
618 619
619 620
620 621
621 622
622 623
623 624
624 625
625 626
626 627
627 628
628 629
629 630
630 631
631 632
632 633
633 634
634 635
635 636
636 637
637 638
638 639
639 640
640 641
641 642
642 643
644 645
645 646
648 649
649 650
650 651
651 652
652 653
653 654
654 655
655 656
656 657
657 658
658 659
659 660
660 661
661 662
662 663
663 664
664 665
665 666
666 667
667 668
668 669
669 670
670 671
671 672
672 673
673 674
674 675
675 676
676 677
677 678
678 679
679 680
680 681
681 682
682 683
683 684
684 685
685 686
686 687
687 688
688 689
689 690
690 691
691 692
692 693
693 694
694 695
695 696
697 698
698 699
699 700
700 701
701 702
702 703
703 704
704 705
705 706
706 707
707 708
708 709
709 710
710 711
711 712
712 713
713 714
714 715
715 716
716 717
717 718
718 719
719 720
720 721
721 722
722 723
723 724
724 725
725 726
726 727
727 728
728 729
729 730
730 731
731 732
732 733
733 734
734 735
